\Problem name: 

Minimize
obj: 5 x0 + 16 x1 + 16 x2 + x3 + 12 x4 + 11 x5 + x6 + 6 x7 + 19 x8 + 19 x9
 + x10 + 19 x11 + 3 x12 + 19 x13 + 19 x14 + x15 + x16 + 4 x17 + x18 + 12 x19
 + 9 x20 + 12 x21 + 4 x22 + 4 x23 + 11 x24
Subject To
cons0:  x0 + x1 + x2 + x3 + x4 <= 1
cons1:  - x0 - x1 - x2 - x3 - x4 <= -1
cons2:  x5 + x6 + x7 + x8 + x9 <= 1
cons3:  - x5 - x6 - x7 - x8 - x9 <= -1
cons4:  x10 + x11 + x12 + x13 + x14 <= 1
cons5:  - x10 - x11 - x12 - x13 - x14 <= -1
cons6:  x15 + x16 + x17 + x18 + x19 <= 1
cons7:  - x15 - x16 - x17 - x18 - x19 <= -1
cons8:  x20 + x21 + x22 + x23 + x24 <= 1
cons9:  - x20 - x21 - x22 - x23 - x24 <= -1
cons10:  x0 + x5 + x10 + x15 + x20 <= 1
cons11:  - x0 - x5 - x10 - x15 - x20 <= -1
cons12:  x1 + x6 + x11 + x16 + x21 <= 1
cons13:  - x1 - x6 - x11 - x16 - x21 <= -1
cons14:  x2 + x7 + x12 + x17 + x22 <= 1
cons15:  - x2 - x7 - x12 - x17 - x22 <= -1
cons16:  x3 + x8 + x13 + x18 + x23 <= 1
cons17:  - x3 - x8 - x13 - x18 - x23 <= -1
cons18:  x4 + x9 + x14 + x19 + x24 <= 1
cons19:  - x4 - x9 - x14 - x19 - x24 <= 1
cons20:  x0 <= 1
cons21:  x1 <= 1
cons22:  x2 <= 1
cons23:  x3 <= 0
cons24:  x4 <= 1
cons25:  x5 <= 0
cons26:  x6 <= 1
cons27:  x7 <= 1
cons28:  x8 <= 1
cons29:  x9 <= 0
cons30:  x10 <= 1
cons31:  x11 <= 1
cons32:  x12 <= 0
cons33:  x13 <= 1
cons34:  x14 <= 1
cons35:  x15 <= 1
cons36:  x16 <= 1
cons37:  x17 <= 1
cons38:  x18 <= 1
cons39:  x19 <= 1
cons40:  x20 <= 1
cons41:  x21 <= 0
cons42:  x22 <= 1
cons43:  x23 <= 1
cons44:  x24 <= 1
Bounds
 0 <= x0 <= 1
 0 <= x1 <= 1
 0 <= x2 <= 1
 0 <= x3 <= 1
 0 <= x4 <= 1
 0 <= x5 <= 1
 0 <= x6 <= 1
 0 <= x7 <= 1
 0 <= x8 <= 1
 0 <= x9 <= 1
 0 <= x10 <= 1
 0 <= x11 <= 1
 0 <= x12 <= 1
 0 <= x13 <= 1
 0 <= x14 <= 1
 0 <= x15 <= 1
 0 <= x16 <= 1
 0 <= x17 <= 1
 0 <= x18 <= 1
 0 <= x19 <= 1
 0 <= x20 <= 1
 0 <= x21 <= 1
 0 <= x22 <= 1
 0 <= x23 <= 1
 0 <= x24 <= 1
Integers
x0 x1 x2 x3 x4 x5 x6 x7 x8 x9 
x10 x11 x12 x13 x14 x15 x16 x17 x18 x19 
x20 x21 x22 x23 x24 
End
